30
5
706201320
0
1488
99 12 95 96 85 
1
324
62 73 24 47 41 
2
1100
93 56 23 50 16 
3
1503
58 24 18 5 41 
4
414
32 52 87 25 5 
5
1560
41 76 98 45 44 
6
1459
7 72 31 11 85 
7
1590
16 64 14 38 2 
8
1165
47 83 37 16 59 
9
1327
90 51 27 84 85 
10
1498
35 11 28 78 44 
11
562
58 9 1 29 75 
12
1035
30 94 12 87 51 
13
1188
9 10 76 90 54 
14
1039
24 50 69 72 4 
15
524
74 48 65 99 87 
16
347
95 68 49 58 80 
17
752
27 2 41 97 68 
18
1382
67 51 16 29 37 
19
711
37 73 59 7 87 
20
380
25 91 16 76 35 
21
1332
1 6 73 82 38 
22
449
63 92 58 68 20 
23
1012
75 50 46 12 75 
24
962
2 61 53 35 52 
25
826
28 72 71 85 61 
26
512
25 9 82 32 79 
27
601
35 47 84 61 97 
28
1025
92 54 43 61 10 
29
319
37 6 20 50 57 
